proyfinal/src/viki/013/experimentInOfficeAgust.take6.output/45ec573a-de23-4736-8253-744830129150.als.dat
{'cnf.clauses': '118081',
 'cnf.totvars': '69608',
 'conflict literals': '1398',
 'conflicts': '162',
 'decisions': '10584',
 'memused.mb': '16.61',
 'outcome': 'UNSAT',
 'propagations': '225702',
 'restarts': '2',
 'solver.msecs': 39,
 'task.msecs': 98}
