proyfinal/src/viki/013/experimentInOfficeAgust.take6.output/45ec573a-de23-4736-8253-744830129150.als.out
Reading from standard input... Use '--help' for help.
============================[ Problem Statistics ]=============================
|                                                                             |
|  Number of variables:         69608                                         |
|  Number of clauses:          118081                                         |
|  Parse time:                   0.03 s                                       |
|                                                                             |
============================[ Search Statistics ]==============================
| Conflicts |          ORIGINAL         |          LEARNT          | Progress |
|           |    Vars  Clauses Literals |    Limit  Clauses Lit/Cl |          |
===============================================================================
|       100 |   56119    79552   197122 |    29169       96     10 | 19.379 % |
===============================================================================
restarts              : 2
conflicts             : 162            (4104 /sec)
decisions             : 10584          (0.00 % random) (268112 /sec)
propagations          : 225702         (5717449 /sec)
conflict literals     : 1398           (21.94 % deleted)
Memory used           : 16.61 MB
CPU time              : 0.039476 s

UNSATISFIABLE
